# Objective value = 1.7539505392749848e+00
X[0,0] 0
X[0,1] 0
X[0,2] 1
X[0,3] 0
X[1,0] 0
X[1,1] 0
X[1,2] 0
X[1,3] 1
X[2,0] 0
X[2,1] 0
X[2,2] 1
X[2,3] 0
X[3,0] 0
X[3,1] 0
X[3,2] 0
X[3,3] 1
X[4,0] 0
X[4,1] 0
X[4,2] 1
X[4,3] 0
X[5,0] 0
X[5,1] 1
X[5,2] 0
X[5,3] 0
X[6,0] 0
X[6,1] 0
X[6,2] 0
X[6,3] 1
X[7,0] 0
X[7,1] 0
X[7,2] 1
X[7,3] 0
X[8,0] 0
X[8,1] 0
X[8,2] 1
X[8,3] 0
X[9,0] 0
X[9,1] 0
X[9,2] 0
X[9,3] 1
X[10,0] 0
X[10,1] 1
X[10,2] 0
X[10,3] 0
X[11,0] 0
X[11,1] 0
X[11,2] 1
X[11,3] 0
X[12,0] 1
X[12,1] 0
X[12,2] 0
X[12,3] 0
X[13,0] 1
X[13,1] 0
X[13,2] 0
X[13,3] 0
X[14,0] 0
X[14,1] 0
X[14,2] 1
X[14,3] 0
X[15,0] 0
X[15,1] 1
X[15,2] 0
X[15,3] 0
X[16,0] 0
X[16,1] 0
X[16,2] 0
X[16,3] 1
X[17,0] 0
X[17,1] 1
X[17,2] 0
X[17,3] 0
X[18,0] 0
X[18,1] 1
X[18,2] 0
X[18,3] 0
X[19,0] 0
X[19,1] 1
X[19,2] 0
X[19,3] 0
X[20,0] 0
X[20,1] 1
X[20,2] 0
X[20,3] 0
X[21,0] 1
X[21,1] 0
X[21,2] 0
X[21,3] 0
X[22,0] 1
X[22,1] 0
X[22,2] 0
X[22,3] 0
X[23,0] 0
X[23,1] 1
X[23,2] 0
X[23,3] 0
X[24,0] 0
X[24,1] 0
X[24,2] 0
X[24,3] 1
X[25,0] 0
X[25,1] 1
X[25,2] 0
X[25,3] 0
X[26,0] 0
X[26,1] 0
X[26,2] 0
X[26,3] 1
X[27,0] 0
X[27,1] 0
X[27,2] 0
X[27,3] 1
X[28,0] 0
X[28,1] 0
X[28,2] 1
X[28,3] 0
X[29,0] 0
X[29,1] 0
X[29,2] 0
X[29,3] 1
X[30,0] 0
X[30,1] 1
X[30,2] 0
X[30,3] 0
X[31,0] 0
X[31,1] 0
X[31,2] 1
X[31,3] 0
X[32,0] 0
X[32,1] 0
X[32,2] 0
X[32,3] 1
X[33,0] 0
X[33,1] 0
X[33,2] 0
X[33,3] 1
X[34,0] 0
X[34,1] 1
X[34,2] 0
X[34,3] 0
X[35,0] 0
X[35,1] 0
X[35,2] 1
X[35,3] 0
X[36,0] 0
X[36,1] 0
X[36,2] 1
X[36,3] 0
X[37,0] 0
X[37,1] 0
X[37,2] 0
X[37,3] 1
X[38,0] 0
X[38,1] 0
X[38,2] 1
X[38,3] 0
X[39,0] 0
X[39,1] 0
X[39,2] 0
X[39,3] 1
X[40,0] 1
X[40,1] 0
X[40,2] 0
X[40,3] 0
X[41,0] 0
X[41,1] 1
X[41,2] 0
X[41,3] 0
X[42,0] 0
X[42,1] 0
X[42,2] 1
X[42,3] 0
X[43,0] 0
X[43,1] 0
X[43,2] 1
X[43,3] 0
X[44,0] 0
X[44,1] 0
X[44,2] 0
X[44,3] 1
X[45,0] 0
X[45,1] 1
X[45,2] 0
X[45,3] 0
X[46,0] 0
X[46,1] 1
X[46,2] 0
X[46,3] 0
X[47,0] 0
X[47,1] 1
X[47,2] 0
X[47,3] 0
X[48,0] 0
X[48,1] 0
X[48,2] 0
X[48,3] 1
X[49,0] 0
X[49,1] 1
X[49,2] 0
X[49,3] 0
X[50,0] 0
X[50,1] 1
X[50,2] 0
X[50,3] 0
X[51,0] 0
X[51,1] 0
X[51,2] 1
X[51,3] 0
X[52,0] 0
X[52,1] 0
X[52,2] 0
X[52,3] 1
X[53,0] 0
X[53,1] 1
X[53,2] 0
X[53,3] 0
X[54,0] 1
X[54,1] 0
X[54,2] 0
X[54,3] 0
X[55,0] 0
X[55,1] 0
X[55,2] 0
X[55,3] 1
X[56,0] 0
X[56,1] 0
X[56,2] 0
X[56,3] 1
X[57,0] 0
X[57,1] 0
X[57,2] 0
X[57,3] 1
X[58,0] 0
X[58,1] 0
X[58,2] 1
X[58,3] 0
X[59,0] 0
X[59,1] 1
X[59,2] 0
X[59,3] 0
X[60,0] 0
X[60,1] 0
X[60,2] 0
X[60,3] 1
X[61,0] 0
X[61,1] 0
X[61,2] 0
X[61,3] 1
X[62,0] 0
X[62,1] 0
X[62,2] 0
X[62,3] 1
X[63,0] 1
X[63,1] 0
X[63,2] 0
X[63,3] 0
X[64,0] 1
X[64,1] 0
X[64,2] 0
X[64,3] 0
X[65,0] 0
X[65,1] 1
X[65,2] 0
X[65,3] 0
X[66,0] 0
X[66,1] 0
X[66,2] 1
X[66,3] 0
X[67,0] 0
X[67,1] 1
X[67,2] 0
X[67,3] 0
X[68,0] 0
X[68,1] 0
X[68,2] 0
X[68,3] 1
X[69,0] 0
X[69,1] 0
X[69,2] 1
X[69,3] 0
X[70,0] 0
X[70,1] 0
X[70,2] 1
X[70,3] 0
X[71,0] 0
X[71,1] 0
X[71,2] 0
X[71,3] 1
X[72,0] 0
X[72,1] 1
X[72,2] 0
X[72,3] 0
X[73,0] 0
X[73,1] 0
X[73,2] 1
X[73,3] 0
X[74,0] 1
X[74,1] 0
X[74,2] 0
X[74,3] 0
X[75,0] 1
X[75,1] 0
X[75,2] 0
X[75,3] 0
X[76,0] 0
X[76,1] 0
X[76,2] 1
X[76,3] 0
X[77,0] 1
X[77,1] 0
X[77,2] 0
X[77,3] 0
X[78,0] 0
X[78,1] 0
X[78,2] 0
X[78,3] 1
X[79,0] 0
X[79,1] 1
X[79,2] 0
X[79,3] 0
X[80,0] 0
X[80,1] 1
X[80,2] 0
X[80,3] 0
X[81,0] 0
X[81,1] 0
X[81,2] 0
X[81,3] 1
C328 0
C329 0
C330 0
C331 0
C332 0
C333 0
C334 0
C335 0
C336 0
C337 0
C338 0
C339 0
C340 0
C341 0
C342 0
C343 0
C344 0
C345 0
C346 0
C347 0
C348 0
C349 0
C350 0
C351 0
C352 0
C353 0
C354 0
C355 0
C356 0
C357 0
C358 0
C359 0
C360 0
C361 0
C362 0
C363 0
C364 0
C365 0
C366 0
C367 0
C368 0
C369 0
C370 0
C371 0
C372 0
C373 0
C374 0
C375 0
C376 0
C377 0
C378 0
C379 0
C380 0
C381 0
C382 0
C383 0
C384 0
C385 0
C386 0
C387 0
C388 0
C389 0
C390 0
C391 0
C392 0
C393 0
C394 0
C395 0
C396 0
C397 0
C398 0
C399 0
C400 0
C401 0
C402 0
C403 0
C404 0
C405 0
C406 0
C407 0
C408 0
C409 0
C410 0
C411 0
C412 0
C413 0
C414 0
C415 0
C416 0
C417 0
C418 0
C419 0
C420 0
C421 0
C422 0
C423 0
C424 0
C425 0
C426 0
C427 0
C428 0
C429 0
C430 0
C431 0
C432 0
C433 0
C434 0
C435 0
C436 0
C437 0
C438 0
C439 0
C440 0
C441 0
C442 0
C443 0
C444 0
C445 0
C446 0
C447 0
C448 0
C449 0
C450 0
C451 0
C452 0
C453 0
C454 0
C455 0
C456 0
C457 0
C458 0
C459 0
C460 0
C461 0
C462 0
C463 0
C464 0
C465 0
C466 0
C467 0
C468 0
C469 0
C470 0
C471 0
C472 0
C473 0
C474 0
C475 0
C476 0
C477 0
C478 0
C479 0
C480 0
C481 0
C482 0
C483 0
C484 0
C485 0
C486 0
C487 0
C488 0
C489 0
C490 0
C491 0
C492 0
C493 0
C494 0
C495 0
C496 0
C497 0
C498 0
C499 0
C500 0
C501 0
C502 0
C503 0
C504 0
C505 0
C506 0
C507 0
C508 0
C509 0
C510 0
C511 0
C512 0
C513 0
C514 0
C515 0
C516 0
C517 0
C518 0
C519 0
C520 0
C521 0
C522 0
C523 0
C524 0
C525 0
C526 0
C527 0
C528 0
C529 0
C530 0
C531 0
C532 0
C533 0
C534 0
C535 0
C536 0
C537 0
C538 0
C539 0
C540 0
C541 0
C542 0
C543 0
C544 0
C545 0
C546 0
C547 0
C548 0
C549 0
C550 0
C551 0
C552 0
C553 0
C554 0
C555 0
C556 0
C557 0
C558 0
C559 0
C560 0
C561 0
C562 0
C563 0
C564 0
C565 0
C566 0
C567 0
C568 0
C569 0
C570 0
C571 0
C572 0
C573 0
C574 0
C575 0
C576 0
C577 0
C578 0
C579 0
C580 0
C581 0
C582 0
C583 0
C584 0
C585 0
C586 0
C587 0
C588 0
C589 0
C590 0
C591 0
C592 0
C593 0
C594 0
C595 0
C596 0
C597 0
C598 0
C599 0
C600 0
C601 0
C602 0
C603 0
C604 0
C605 0
C606 0
C607 0
C608 0
C609 0
C610 0
C611 0
C612 0
C613 0
C614 0
C615 0
C616 0
C617 0
C618 0
C619 0
C620 0
C621 0
C622 0
C623 0
C624 0
C625 0
C626 0
C627 0
C628 1
C629 0
C630 0
C631 0
C632 0
C633 0
C634 0
C635 0
C636 0
C637 0
C638 0
C639 0
C640 0
C641 0
C642 0
C643 0
C644 0
C645 0
C646 0
C647 0
C648 0
C649 0
C650 0
C651 0
C652 0
C653 0
C654 0
C655 0
cdf0 8.2107623429242813e-02
cdf1 7.1745469782089089e-01
cdf2 7.7810013421052893e-01
cdf3 1.7628808381432215e-01
C660 0
C661 0
C662 0
C663 0
C664 0
C665 0
C666 1
C667 1
C668 1
C669 1
C670 1
C671 1
C672 1
C673 1
C674 1
C675 1
C676 1
C677 1
C678 1
C679 1
C680 1
C681 1
C682 1
C683 1
C684 1
C685 1
C686 1
C687 1
C688 1
C689 1
C690 1
C691 1
C692 1
C693 1
C694 1
C695 1
C696 1
C697 1
C698 1
C699 1
C700 1
C701 0
C702 0
C703 0
C704 0
C705 0
C706 0
C707 0
C708 0
C709 0
C710 0
C711 0
C712 0
C713 0
C714 0
C715 0
C716 0
C717 0
C718 0
C719 0
C720 0
C721 0
C722 0
C723 0
C724 0
C725 0
C726 0
C727 0
C728 1
C729 1
C730 1
C731 1
C732 1
C733 1
C734 1
C735 1
C736 1
C737 1
C738 1
C739 1
C740 1
C741 1
C742 0
C743 0
C744 0
C745 0
C746 0
C747 0
C748 0
C749 0
C750 0
C751 0
C752 0
C753 0
C754 0
C755 0
C756 0
C757 0
C758 0
C759 0
C760 0
C761 0
C762 0
C763 0
C764 0
C765 0
C766 0
C767 0
C768 0
C769 0
C770 0
C771 1
C772 1
C773 1
C774 1
C775 1
C776 1
C777 1
C778 1
C779 1
C780 1
C781 1
C782 1
C783 0
C784 0
C785 0
C786 0
C787 0
C788 0
C789 0
C790 0
C791 0
C792 0
C793 1
C794 1
C795 1
C796 1
C797 1
C798 1
C799 1
C800 1
C801 1
C802 1
C803 1
C804 1
C805 1
C806 1
C807 1
C808 1
C809 1
C810 1
C811 1
C812 1
C813 1
C814 1
C815 1
C816 1
C817 1
C818 1
C819 1
C820 1
C821 1
C822 1
C823 1
vap0 620030
vap1 510621
vap2 518264
vap3 628684
C828 122130
C829 247770
C830 267902
C831 165161
